c graph colorability of graph:
c random_regular_graph(5, 98).
c
c Generated with `cnfgen`
c (C) 2012-2016 Massimo Lauria <lauria.massimo@gmail.com>
c https://massimolauria.github.io/cnfgen
c
p cnf 294 1127
1 2 3 0
-1 -2 0
-1 -3 0
-2 -3 0
4 5 6 0
-4 -5 0
-4 -6 0
-5 -6 0
7 8 9 0
-7 -8 0
-7 -9 0
-8 -9 0
10 11 12 0
-10 -11 0
-10 -12 0
-11 -12 0
13 14 15 0
-13 -14 0
-13 -15 0
-14 -15 0
16 17 18 0
-16 -17 0
-16 -18 0
-17 -18 0
19 20 21 0
-19 -20 0
-19 -21 0
-20 -21 0
22 23 24 0
-22 -23 0
-22 -24 0
-23 -24 0
25 26 27 0
-25 -26 0
-25 -27 0
-26 -27 0
28 29 30 0
-28 -29 0
-28 -30 0
-29 -30 0
31 32 33 0
-31 -32 0
-31 -33 0
-32 -33 0
34 35 36 0
-34 -35 0
-34 -36 0
-35 -36 0
37 38 39 0
-37 -38 0
-37 -39 0
-38 -39 0
40 41 42 0
-40 -41 0
-40 -42 0
-41 -42 0
43 44 45 0
-43 -44 0
-43 -45 0
-44 -45 0
46 47 48 0
-46 -47 0
-46 -48 0
-47 -48 0
49 50 51 0
-49 -50 0
-49 -51 0
-50 -51 0
52 53 54 0
-52 -53 0
-52 -54 0
-53 -54 0
55 56 57 0
-55 -56 0
-55 -57 0
-56 -57 0
58 59 60 0
-58 -59 0
-58 -60 0
-59 -60 0
61 62 63 0
-61 -62 0
-61 -63 0
-62 -63 0
64 65 66 0
-64 -65 0
-64 -66 0
-65 -66 0
67 68 69 0
-67 -68 0
-67 -69 0
-68 -69 0
70 71 72 0
-70 -71 0
-70 -72 0
-71 -72 0
73 74 75 0
-73 -74 0
-73 -75 0
-74 -75 0
76 77 78 0
-76 -77 0
-76 -78 0
-77 -78 0
79 80 81 0
-79 -80 0
-79 -81 0
-80 -81 0
82 83 84 0
-82 -83 0
-82 -84 0
-83 -84 0
85 86 87 0
-85 -86 0
-85 -87 0
-86 -87 0
88 89 90 0
-88 -89 0
-88 -90 0
-89 -90 0
91 92 93 0
-91 -92 0
-91 -93 0
-92 -93 0
94 95 96 0
-94 -95 0
-94 -96 0
-95 -96 0
97 98 99 0
-97 -98 0
-97 -99 0
-98 -99 0
100 101 102 0
-100 -101 0
-100 -102 0
-101 -102 0
103 104 105 0
-103 -104 0
-103 -105 0
-104 -105 0
106 107 108 0
-106 -107 0
-106 -108 0
-107 -108 0
109 110 111 0
-109 -110 0
-109 -111 0
-110 -111 0
112 113 114 0
-112 -113 0
-112 -114 0
-113 -114 0
115 116 117 0
-115 -116 0
-115 -117 0
-116 -117 0
118 119 120 0
-118 -119 0
-118 -120 0
-119 -120 0
121 122 123 0
-121 -122 0
-121 -123 0
-122 -123 0
124 125 126 0
-124 -125 0
-124 -126 0
-125 -126 0
127 128 129 0
-127 -128 0
-127 -129 0
-128 -129 0
130 131 132 0
-130 -131 0
-130 -132 0
-131 -132 0
133 134 135 0
-133 -134 0
-133 -135 0
-134 -135 0
136 137 138 0
-136 -137 0
-136 -138 0
-137 -138 0
139 140 141 0
-139 -140 0
-139 -141 0
-140 -141 0
142 143 144 0
-142 -143 0
-142 -144 0
-143 -144 0
145 146 147 0
-145 -146 0
-145 -147 0
-146 -147 0
148 149 150 0
-148 -149 0
-148 -150 0
-149 -150 0
151 152 153 0
-151 -152 0
-151 -153 0
-152 -153 0
154 155 156 0
-154 -155 0
-154 -156 0
-155 -156 0
157 158 159 0
-157 -158 0
-157 -159 0
-158 -159 0
160 161 162 0
-160 -161 0
-160 -162 0
-161 -162 0
163 164 165 0
-163 -164 0
-163 -165 0
-164 -165 0
166 167 168 0
-166 -167 0
-166 -168 0
-167 -168 0
169 170 171 0
-169 -170 0
-169 -171 0
-170 -171 0
172 173 174 0
-172 -173 0
-172 -174 0
-173 -174 0
175 176 177 0
-175 -176 0
-175 -177 0
-176 -177 0
178 179 180 0
-178 -179 0
-178 -180 0
-179 -180 0
181 182 183 0
-181 -182 0
-181 -183 0
-182 -183 0
184 185 186 0
-184 -185 0
-184 -186 0
-185 -186 0
187 188 189 0
-187 -188 0
-187 -189 0
-188 -189 0
190 191 192 0
-190 -191 0
-190 -192 0
-191 -192 0
193 194 195 0
-193 -194 0
-193 -195 0
-194 -195 0
196 197 198 0
-196 -197 0
-196 -198 0
-197 -198 0
199 200 201 0
-199 -200 0
-199 -201 0
-200 -201 0
202 203 204 0
-202 -203 0
-202 -204 0
-203 -204 0
205 206 207 0
-205 -206 0
-205 -207 0
-206 -207 0
208 209 210 0
-208 -209 0
-208 -210 0
-209 -210 0
211 212 213 0
-211 -212 0
-211 -213 0
-212 -213 0
214 215 216 0
-214 -215 0
-214 -216 0
-215 -216 0
217 218 219 0
-217 -218 0
-217 -219 0
-218 -219 0
220 221 222 0
-220 -221 0
-220 -222 0
-221 -222 0
223 224 225 0
-223 -224 0
-223 -225 0
-224 -225 0
226 227 228 0
-226 -227 0
-226 -228 0
-227 -228 0
229 230 231 0
-229 -230 0
-229 -231 0
-230 -231 0
232 233 234 0
-232 -233 0
-232 -234 0
-233 -234 0
235 236 237 0
-235 -236 0
-235 -237 0
-236 -237 0
238 239 240 0
-238 -239 0
-238 -240 0
-239 -240 0
241 242 243 0
-241 -242 0
-241 -243 0
-242 -243 0
244 245 246 0
-244 -245 0
-244 -246 0
-245 -246 0
247 248 249 0
-247 -248 0
-247 -249 0
-248 -249 0
250 251 252 0
-250 -251 0
-250 -252 0
-251 -252 0
253 254 255 0
-253 -254 0
-253 -255 0
-254 -255 0
256 257 258 0
-256 -257 0
-256 -258 0
-257 -258 0
259 260 261 0
-259 -260 0
-259 -261 0
-260 -261 0
262 263 264 0
-262 -263 0
-262 -264 0
-263 -264 0
265 266 267 0
-265 -266 0
-265 -267 0
-266 -267 0
268 269 270 0
-268 -269 0
-268 -270 0
-269 -270 0
271 272 273 0
-271 -272 0
-271 -273 0
-272 -273 0
274 275 276 0
-274 -275 0
-274 -276 0
-275 -276 0
277 278 279 0
-277 -278 0
-277 -279 0
-278 -279 0
280 281 282 0
-280 -281 0
-280 -282 0
-281 -282 0
283 284 285 0
-283 -284 0
-283 -285 0
-284 -285 0
286 287 288 0
-286 -287 0
-286 -288 0
-287 -288 0
289 290 291 0
-289 -290 0
-289 -291 0
-290 -291 0
292 293 294 0
-292 -293 0
-292 -294 0
-293 -294 0
-1 -67 0
-2 -68 0
-3 -69 0
-1 -91 0
-2 -92 0
-3 -93 0
-1 -121 0
-2 -122 0
-3 -123 0
-1 -136 0
-2 -137 0
-3 -138 0
-1 -274 0
-2 -275 0
-3 -276 0
-4 -55 0
-5 -56 0
-6 -57 0
-4 -160 0
-5 -161 0
-6 -162 0
-4 -187 0
-5 -188 0
-6 -189 0
-4 -202 0
-5 -203 0
-6 -204 0
-4 -289 0
-5 -290 0
-6 -291 0
-7 -49 0
-8 -50 0
-9 -51 0
-7 -76 0
-8 -77 0
-9 -78 0
-7 -82 0
-8 -83 0
-9 -84 0
-7 -118 0
-8 -119 0
-9 -120 0
-7 -196 0
-8 -197 0
-9 -198 0
-10 -181 0
-11 -182 0
-12 -183 0
-10 -220 0
-11 -221 0
-12 -222 0
-10 -232 0
-11 -233 0
-12 -234 0
-10 -244 0
-11 -245 0
-12 -246 0
-10 -247 0
-11 -248 0
-12 -249 0
-13 -19 0
-14 -20 0
-15 -21 0
-13 -61 0
-14 -62 0
-15 -63 0
-13 -175 0
-14 -176 0
-15 -177 0
-13 -184 0
-14 -185 0
-15 -186 0
-13 -238 0
-14 -239 0
-15 -240 0
-16 -52 0
-17 -53 0
-18 -54 0
-16 -139 0
-17 -140 0
-18 -141 0
-16 -145 0
-17 -146 0
-18 -147 0
-16 -241 0
-17 -242 0
-18 -243 0
-16 -265 0
-17 -266 0
-18 -267 0
-19 -175 0
-20 -176 0
-21 -177 0
-19 -190 0
-20 -191 0
-21 -192 0
-19 -256 0
-20 -257 0
-21 -258 0
-19 -265 0
-20 -266 0
-21 -267 0
-22 -52 0
-23 -53 0
-24 -54 0
-22 -91 0
-23 -92 0
-24 -93 0
-22 -238 0
-23 -239 0
-24 -240 0
-22 -250 0
-23 -251 0
-24 -252 0
-22 -289 0
-23 -290 0
-24 -291 0
-25 -67 0
-26 -68 0
-27 -69 0
-25 -193 0
-26 -194 0
-27 -195 0
-25 -220 0
-26 -221 0
-27 -222 0
-25 -232 0
-26 -233 0
-27 -234 0
-25 -268 0
-26 -269 0
-27 -270 0
-28 -46 0
-29 -47 0
-30 -48 0
-28 -79 0
-29 -80 0
-30 -81 0
-28 -145 0
-29 -146 0
-30 -147 0
-28 -220 0
-29 -221 0
-30 -222 0
-28 -277 0
-29 -278 0
-30 -279 0
-31 -49 0
-32 -50 0
-33 -51 0
-31 -55 0
-32 -56 0
-33 -57 0
-31 -184 0
-32 -185 0
-33 -186 0
-31 -247 0
-32 -248 0
-33 -249 0
-31 -286 0
-32 -287 0
-33 -288 0
-34 -58 0
-35 -59 0
-36 -60 0
-34 -88 0
-35 -89 0
-36 -90 0
-34 -202 0
-35 -203 0
-36 -204 0
-34 -229 0
-35 -230 0
-36 -231 0
-34 -286 0
-35 -287 0
-36 -288 0
-37 -52 0
-38 -53 0
-39 -54 0
-37 -130 0
-38 -131 0
-39 -132 0
-37 -136 0
-38 -137 0
-39 -138 0
-37 -169 0
-38 -170 0
-39 -171 0
-37 -214 0
-38 -215 0
-39 -216 0
-40 -97 0
-41 -98 0
-42 -99 0
-40 -118 0
-41 -119 0
-42 -120 0
-40 -196 0
-41 -197 0
-42 -198 0
-40 -223 0
-41 -224 0
-42 -225 0
-40 -292 0
-41 -293 0
-42 -294 0
-43 -61 0
-44 -62 0
-45 -63 0
-43 -118 0
-44 -119 0
-45 -120 0
-43 -139 0
-44 -140 0
-45 -141 0
-43 -283 0
-44 -284 0
-45 -285 0
-43 -292 0
-44 -293 0
-45 -294 0
-46 -193 0
-47 -194 0
-48 -195 0
-46 -235 0
-47 -236 0
-48 -237 0
-46 -250 0
-47 -251 0
-48 -252 0
-46 -289 0
-47 -290 0
-48 -291 0
-49 -139 0
-50 -140 0
-51 -141 0
-49 -145 0
-50 -146 0
-51 -147 0
-49 -217 0
-50 -218 0
-51 -219 0
-52 -148 0
-53 -149 0
-54 -150 0
-52 -262 0
-53 -263 0
-54 -264 0
-55 -163 0
-56 -164 0
-57 -165 0
-55 -229 0
-56 -230 0
-57 -231 0
-55 -271 0
-56 -272 0
-57 -273 0
-58 -73 0
-59 -74 0
-60 -75 0
-58 -112 0
-59 -113 0
-60 -114 0
-58 -166 0
-59 -167 0
-60 -168 0
-58 -205 0
-59 -206 0
-60 -207 0
-61 -70 0
-62 -71 0
-63 -72 0
-61 -94 0
-62 -95 0
-63 -96 0
-61 -178 0
-62 -179 0
-63 -180 0
-64 -82 0
-65 -83 0
-66 -84 0
-64 -103 0
-65 -104 0
-66 -105 0
-64 -115 0
-65 -116 0
-66 -117 0
-64 -142 0
-65 -143 0
-66 -144 0
-64 -226 0
-65 -227 0
-66 -228 0
-67 -136 0
-68 -137 0
-69 -138 0
-67 -217 0
-68 -218 0
-69 -219 0
-67 -292 0
-68 -293 0
-69 -294 0
-70 -109 0
-71 -110 0
-72 -111 0
-70 -115 0
-71 -116 0
-72 -117 0
-70 -142 0
-71 -143 0
-72 -144 0
-70 -193 0
-71 -194 0
-72 -195 0
-73 -112 0
-74 -113 0
-75 -114 0
-73 -229 0
-74 -230 0
-75 -231 0
-73 -256 0
-74 -257 0
-75 -258 0
-73 -259 0
-74 -260 0
-75 -261 0
-76 -97 0
-77 -98 0
-78 -99 0
-76 -121 0
-77 -122 0
-78 -123 0
-76 -151 0
-77 -152 0
-78 -153 0
-76 -163 0
-77 -164 0
-78 -165 0
-79 -181 0
-80 -182 0
-81 -183 0
-79 -256 0
-80 -257 0
-81 -258 0
-79 -277 0
-80 -278 0
-81 -279 0
-79 -283 0
-80 -284 0
-81 -285 0
-82 -91 0
-83 -92 0
-84 -93 0
-82 -166 0
-83 -167 0
-84 -168 0
-82 -208 0
-83 -209 0
-84 -210 0
-85 -157 0
-86 -158 0
-87 -159 0
-85 -160 0
-86 -161 0
-87 -162 0
-85 -175 0
-86 -176 0
-87 -177 0
-85 -178 0
-86 -179 0
-87 -180 0
-85 -184 0
-86 -185 0
-87 -186 0
-88 -139 0
-89 -140 0
-90 -141 0
-88 -151 0
-89 -152 0
-90 -153 0
-88 -199 0
-89 -200 0
-90 -201 0
-88 -280 0
-89 -281 0
-90 -282 0
-91 -94 0
-92 -95 0
-93 -96 0
-91 -196 0
-92 -197 0
-93 -198 0
-94 -202 0
-95 -203 0
-96 -204 0
-94 -253 0
-95 -254 0
-96 -255 0
-94 -271 0
-95 -272 0
-96 -273 0
-97 -202 0
-98 -203 0
-99 -204 0
-97 -247 0
-98 -248 0
-99 -249 0
-97 -259 0
-98 -260 0
-99 -261 0
-100 -142 0
-101 -143 0
-102 -144 0
-100 -163 0
-101 -164 0
-102 -165 0
-100 -169 0
-101 -170 0
-102 -171 0
-100 -229 0
-101 -230 0
-102 -231 0
-100 -235 0
-101 -236 0
-102 -237 0
-103 -148 0
-104 -149 0
-105 -150 0
-103 -214 0
-104 -215 0
-105 -216 0
-103 -223 0
-104 -224 0
-105 -225 0
-103 -274 0
-104 -275 0
-105 -276 0
-106 -112 0
-107 -113 0
-108 -114 0
-106 -154 0
-107 -155 0
-108 -156 0
-106 -187 0
-107 -188 0
-108 -189 0
-106 -199 0
-107 -200 0
-108 -201 0
-106 -256 0
-107 -257 0
-108 -258 0
-109 -127 0
-110 -128 0
-111 -129 0
-109 -133 0
-110 -134 0
-111 -135 0
-109 -151 0
-110 -152 0
-111 -153 0
-109 -175 0
-110 -176 0
-111 -177 0
-112 -190 0
-113 -191 0
-114 -192 0
-112 -277 0
-113 -278 0
-114 -279 0
-115 -136 0
-116 -137 0
-117 -138 0
-115 -238 0
-116 -239 0
-117 -240 0
-115 -283 0
-116 -284 0
-117 -285 0
-118 -193 0
-119 -194 0
-120 -195 0
-118 -268 0
-119 -269 0
-120 -270 0
-121 -172 0
-122 -173 0
-123 -174 0
-121 -196 0
-122 -197 0
-123 -198 0
-121 -211 0
-122 -212 0
-123 -213 0
-124 -160 0
-125 -161 0
-126 -162 0
-124 -199 0
-125 -200 0
-126 -201 0
-124 -211 0
-125 -212 0
-126 -213 0
-124 -259 0
-125 -260 0
-126 -261 0
-124 -262 0
-125 -263 0
-126 -264 0
-127 -169 0
-128 -170 0
-129 -171 0
-127 -229 0
-128 -230 0
-129 -231 0
-127 -265 0
-128 -266 0
-129 -267 0
-127 -268 0
-128 -269 0
-129 -270 0
-130 -133 0
-131 -134 0
-132 -135 0
-130 -148 0
-131 -149 0
-132 -150 0
-130 -208 0
-131 -209 0
-132 -210 0
-130 -226 0
-131 -227 0
-132 -228 0
-133 -148 0
-134 -149 0
-135 -150 0
-133 -166 0
-134 -167 0
-135 -168 0
-133 -172 0
-134 -173 0
-135 -174 0
-136 -253 0
-137 -254 0
-138 -255 0
-139 -154 0
-140 -155 0
-141 -156 0
-142 -154 0
-143 -155 0
-144 -156 0
-142 -205 0
-143 -206 0
-144 -207 0
-145 -190 0
-146 -191 0
-147 -192 0
-145 -214 0
-146 -215 0
-147 -216 0
-148 -154 0
-149 -155 0
-150 -156 0
-151 -253 0
-152 -254 0
-153 -255 0
-151 -271 0
-152 -272 0
-153 -273 0
-154 -265 0
-155 -266 0
-156 -267 0
-157 -181 0
-158 -182 0
-159 -183 0
-157 -184 0
-158 -185 0
-159 -186 0
-157 -190 0
-158 -191 0
-159 -192 0
-157 -217 0
-158 -218 0
-159 -219 0
-160 -220 0
-161 -221 0
-162 -222 0
-160 -253 0
-161 -254 0
-162 -255 0
-163 -274 0
-164 -275 0
-165 -276 0
-163 -280 0
-164 -281 0
-165 -282 0
-166 -223 0
-167 -224 0
-168 -225 0
-166 -262 0
-167 -263 0
-168 -264 0
-169 -175 0
-170 -176 0
-171 -177 0
-169 -277 0
-170 -278 0
-171 -279 0
-172 -178 0
-173 -179 0
-174 -180 0
-172 -187 0
-173 -188 0
-174 -189 0
-172 -271 0
-173 -272 0
-174 -273 0
-178 -187 0
-179 -188 0
-180 -189 0
-178 -199 0
-179 -200 0
-180 -201 0
-181 -205 0
-182 -206 0
-183 -207 0
-181 -274 0
-182 -275 0
-183 -276 0
-184 -235 0
-185 -236 0
-186 -237 0
-187 -241 0
-188 -242 0
-189 -243 0
-190 -244 0
-191 -245 0
-192 -246 0
-193 -214 0
-194 -215 0
-195 -216 0
-196 -292 0
-197 -293 0
-198 -294 0
-199 -244 0
-200 -245 0
-201 -246 0
-202 -226 0
-203 -227 0
-204 -228 0
-205 -211 0
-206 -212 0
-207 -213 0
-205 -250 0
-206 -251 0
-207 -252 0
-208 -220 0
-209 -221 0
-210 -222 0
-208 -238 0
-209 -239 0
-210 -240 0
-208 -274 0
-209 -275 0
-210 -276 0
-211 -259 0
-212 -260 0
-213 -261 0
-211 -277 0
-212 -278 0
-213 -279 0
-214 -283 0
-215 -284 0
-216 -285 0
-217 -232 0
-218 -233 0
-219 -234 0
-217 -241 0
-218 -242 0
-219 -243 0
-223 -235 0
-224 -236 0
-225 -237 0
-223 -286 0
-224 -287 0
-225 -288 0
-226 -247 0
-227 -248 0
-228 -249 0
-226 -259 0
-227 -260 0
-228 -261 0
-232 -271 0
-233 -272 0
-234 -273 0
-232 -292 0
-233 -293 0
-234 -294 0
-235 -280 0
-236 -281 0
-237 -282 0
-238 -247 0
-239 -248 0
-240 -249 0
-241 -244 0
-242 -245 0
-243 -246 0
-241 -286 0
-242 -287 0
-243 -288 0
-244 -256 0
-245 -257 0
-246 -258 0
-250 -253 0
-251 -254 0
-252 -255 0
-250 -262 0
-251 -263 0
-252 -264 0
-262 -280 0
-263 -281 0
-264 -282 0
-265 -289 0
-266 -290 0
-267 -291 0
-268 -280 0
-269 -281 0
-270 -282 0
-268 -286 0
-269 -287 0
-270 -288 0
-283 -289 0
-284 -290 0
-285 -291 0
